\ Model Simple Minimizer
\ LP format - for model browsing. Use MPS format to capture full model detail.
Minimize
  6 y_1 + 8 y_2
Subject To
 c_1: y_1 + 2 y_2 >= 2
 c_2: 2 y_1 + y_2 >= 3
Bounds
End
